(set-info :smt-lib-version 2.6)
(set-logic LRA)
(set-info :source |
   Monniaux, David; Quantifier Elimination by Lazy Model Enumeration, CAV 2010
|)
(set-info :category "random")
; ./Mjollnir_examples/B3/formula_156.m
(set-info :status unsat)
(assert
 (forall ((|v11:0| Real) )(forall ((|v10:1| Real) )(forall ((|v9:2| Real) )(forall ((|v8:3| Real) )(exists ((|v7:4| Real) )(exists ((|v6:5| Real) )(exists ((|v5:6| Real) )(exists ((|v4:7| Real) )(forall ((|v3:8| Real) )(forall ((|v2:9| Real) )(forall ((|v1:10| Real) )(forall ((|v0:11| Real) )(let ((?x90 12))
(let ((?x194 5))
(let ((?x246 (* ?x194 |v6:5|)))
(let ((?x50 (- 12)))
(let ((?x232 (* ?x50 |v8:3|)))
(let (($x341 (<= (+ (+ (+ (* ?x90 |v0:11|) (* 6 |v9:2|)) ?x232) ?x246) ?x90)))
(let ((?x36 (- 11)))
(let ((?x329 (+ (+ (* (- 14) |v0:11|) (* 3 |v8:3|)) (* 2 |v2:9|))))
(let ((?x86 18))
(let ((?x321 (+ (+ (* (- 4) |v7:4|) (* (- 10) |v6:5|)) (* (- 1) |v11:0|))))
(let (($x333 (or (<= (+ ?x321 (* 9 |v3:8|)) ?x86) (<= (+ ?x329 (* ?x194 |v10:1|)) ?x36))))
(let ((?x58 11))
(let ((?x316 (+ (+ (+ |v0:11| (* 7 |v5:6|)) (* (- 17) |v7:4|)) (* (- 17) |v1:10|))))
(let ((?x43 (- 1)))
(let ((?x307 (+ (+ (+ (* 0 |v4:7|) (* 8 |v8:3|)) |v7:4|) (* (- 7) |v5:6|))))
(let ((?x143 (- 2)))
(let ((?x298 (+ (+ (* 2 |v10:1|) (* 6 |v8:3|)) (* 20 |v4:7|))))
(let (($x335 (or (<= (+ ?x298 (* 20 |v3:8|)) ?x143) (or (or (<= ?x307 ?x43) (<= ?x316 ?x58)) $x333))))
(let ((?x123 (- 9)))
(let ((?x178 (- 10)))
(let ((?x289 (* ?x178 |v6:5|)))
(let ((?x290 (+ (+ (+ (* ?x90 |v8:3|) (* ?x58 |v6:5|)) (* (- 14) |v3:8|)) ?x289)))
(let ((?x147 10))
(let ((?x282 (+ (+ (+ (* ?x147 |v5:6|) (* 6 |v9:2|)) (* ?x43 |v2:9|)) (* 13 |v8:3|))))
(let ((?x27 (- 19)))
(let ((?x274 (+ (+ (+ (* (- 4) |v7:4|) (* ?x123 |v3:8|)) (* ?x86 |v7:4|)) (* (- 3) |v8:3|))))
(let ((?x31 19))
(let ((?x258 (+ (+ (* 14 |v11:0|) (* 6 |v2:9|)) (* ?x36 |v4:7|))))
(let ((?x40 (- 16)))
(let ((?x250 (+ (+ (+ (* (- 7) |v9:2|) ?x246) (* (- 13) |v7:4|)) (* 9 |v9:2|))))
(let ((?x14 3))
(let ((?x242 (+ (+ (+ (* (- 14) |v5:6|) (* (- 13) |v7:4|)) |v7:4|) (* 14 |v0:11|))))
(let ((?x231 (+ (+ (* ?x194 |v7:4|) (* (- 5) |v3:8|)) (* 15 |v9:2|))))
(let (($x263 (and (or (<= (+ ?x231 ?x232) ?x90) (<= ?x242 ?x14)) (and (<= ?x250 ?x40) (<= (+ ?x258 (* ?x147 |v6:5|)) ?x31)))))
(let (($x336 (and (and $x263 (or (and (<= ?x274 ?x27) (<= ?x282 ?x147)) (<= ?x290 ?x123))) $x335)))
(let ((?x219 (+ (+ (* ?x40 |v0:11|) (* 7 |v3:8|)) (* 4 |v5:6|))))
(let ((?x108 4))
(let ((?x213 (+ (+ (+ (* ?x50 |v4:7|) (* ?x86 |v2:9|)) (* ?x178 |v9:2|)) (* 2 |v6:5|))))
(let ((?x201 (+ (+ (+ (* ?x194 |v1:10|) (* ?x50 |v9:2|)) (* (- 13) |v6:5|)) (* ?x123 |v0:11|))))
(let ((?x191 (+ (+ (+ (* 20 |v9:2|) (* ?x40 |v5:6|)) (* ?x123 |v6:5|)) (* ?x27 |v0:11|))))
(let ((?x10 13))
(let ((?x21 (* ?x14 |v9:2|)))
(let ((?x182 (+ (+ (* (- 15) |v5:6|) (* ?x178 |v7:4|)) (* (- 15) |v4:7|))))
(let ((?x174 (+ (+ (+ (* ?x14 |v11:0|) (* ?x143 |v6:5|)) (* ?x147 |v0:11|)) (* 15 |v2:9|))))
(let (($x204 (and (or (<= ?x174 ?x58) (<= (+ ?x182 ?x21) ?x10)) (and (<= ?x191 ?x178) (<= ?x201 ?x143)))))
(let ((?x162 (+ (+ (* 8 |v11:0|) (* (- 7) |v0:11|)) (* ?x58 |v1:10|))))
(let ((?x154 (- 15)))
(let ((?x153 (+ (+ (+ (* ?x147 |v8:3|) (* ?x58 |v8:3|)) (* ?x40 |v4:7|)) (* ?x108 |v11:0|))))
(let ((?x142 (+ (+ (+ (* ?x31 |v8:3|) (* 8 |v4:7|)) (* ?x58 |v10:1|)) (* 7 |v4:7|))))
(let (($x167 (or (and (<= ?x142 ?x143) (<= ?x153 ?x154)) (<= (+ ?x162 (* (- 13) |v9:2|)) (- 8)))))
(let ((?x128 (- 13)))
(let ((?x125 (+ (+ (* 9 |v5:6|) (* 2 |v5:6|)) (* ?x123 |v10:1|))))
(let ((?x112 (+ (+ (+ (* 14 |v6:5|) (* ?x31 |v7:4|)) (* ?x108 |v1:10|)) (* ?x10 |v4:7|))))
(let ((?x99 8))
(let ((?x98 (+ (+ (+ (* ?x90 |v7:4|) (* ?x43 |v4:7|)) (* ?x90 |v3:8|)) (* ?x43 |v9:2|))))
(let (($x87 (<= (+ (+ (+ |v3:8| (* 15 |v5:6|)) (* ?x31 |v10:1|)) |v8:3|) ?x86)))
(let (($x131 (and (or $x87 (<= ?x98 ?x99)) (or (<= ?x112 ?x108) (<= (+ ?x125 (* ?x90 |v4:7|)) ?x128)))))
(let ((?x76 15))
(let ((?x74 (* ?x58 |v6:5|)))
(let ((?x72 (+ (+ (* (- 7) |v7:4|) (* ?x58 |v8:3|)) (* 0 |v5:6|))))
(let ((?x60 (+ (+ (+ (* ?x31 |v5:6|) (* ?x50 |v11:0|)) (* (- 6) |v0:11|)) (* ?x58 |v2:9|))))
(let ((?x42 (+ (+ (+ (* ?x27 |v3:8|) (* ?x31 |v7:4|)) (* ?x36 |v10:1|)) (* ?x40 |v3:8|))))
(let ((?x22 (+ (+ (+ (* ?x10 |v9:2|) (* ?x14 |v3:8|)) (* 20 |v9:2|)) ?x21)))
(let (($x79 (and (and (<= ?x22 (- 6)) (<= ?x42 ?x43)) (or (<= ?x60 ?x14) (<= (+ ?x72 ?x74) ?x76)))))
(let (($x224 (or (or (and $x79 $x131) (or $x167 $x204)) (and (<= ?x213 ?x108) (<= (+ ?x219 (* 14 |v4:7|)) ?x123)))))
(and $x224 (or $x336 $x341))))))))))))))))))))))))))))))))))))))))))))))))))))))))))))))))))))
)
)
)
)
)
)
)
)
)
)
)
)
(check-sat)
(exit)

